pr8_2
0 45 58 134 33 107 30 106 127 101 12 34 62 85 32 89 78 44 52 71 16 119 18 80 22 76 104 149 48 86 60 97 29 130 82 10 144 113 73 61 5 46 141 140 51 77 59 64 70 137 24 8 139 50 38 37 81 6 69 112 26 143 19 117 41 57 129 63 105 35 53 7 36 136 103 25 83 135 116 128 49 2 98 146 87 121 142 65 99 94 100 91 72 75 84 122 11 92 93 131 124 126 42 67 110 88 90 1 96 20 120 132 102 79 145 111 138 28 55 95 147 17 74 54 148 14 125 31 115 66 27 21 13 43 118 108 9 23 123 56 133 47 40 15 109 68 114 39 0